decision_x1=[0,2];
decision_x2=[0,2];
decision_x3=[0,2];
decision_x4=[0,2];
decision_x5=[0,2];
random_y1=[0,2];
constraint_x2_x1=[
0,1,2.4|
0,2,2.8|
1,0,4|
1,2,7.8|
2,0,2|
2,1,6.3|
];
constraint_x4_x2=[
0,1,7.2|
0,2,7.2|
1,0,9.6|
1,2,2.5|
2,0,7.2|
2,1,8.1|
];
constraint_x4_x3=[
0,1,3.2|
0,2,4.8|
1,0,0.48|
1,2,0.63|
2,0,0.85|
2,1,3.6|
];
constraint_x5_x1=[
0,1,8.7|
0,2,8.2|
1,0,0.93|
1,2,8.8|
2,0,1.1|
2,1,4.6|
];
constraint_x5_x4=[
0,1,2.3|
0,2,7.4|
1,0,1.4|
1,2,4.8|
2,0,3.6|
2,1,5.3|
];
constraint_x1_y1=[
0,0,0.94|
0,1,1.1|
0,2,5|
1,0,4.7|
1,1,9.3|
1,2,6.7|
2,0,3.2|
2,1,2|
2,2,6.8|
];
initial_distribution_y1=[0.16,0.48,0.37];
transition_y1=[
0.29,0.24,0.48|
0.69,0.29,0.024|
0.33,0.27,0.4|
];
